19 965
520 7 441 7 296 7 152 12
520 7 441 7 296 7 150 12
519 7 499 7 409 7 251 9 141 18
525 7 479 7 355 7 108 9 935 13
525 7 479 7 358 7 113 12
525 7 445 7 264 7 63 9 877 13
520 7 440 7 284 7 88 12
530 7 487 7 372 7 89 12
520 7 440 7 284 7 103 9 923 13
525 7 445 7 286 10
525 7 479 7 356 7 109 9 965 11 699 15 550 22
529 7 485 7 272 7 90 9 798 11 593 18
525 7 482 7 365 7 115 9 881 11 695 15 549 22
532 7
532 7
532 7
532 7
532 7
532 7
